NAME : it16862
COMMENT : 16862 locations in Italy
COMMENT : Derived from National Imagery and Mapping Agency data
TYPE : TSP
DIMENSION : 10
EDGE_WEIGHT_TYPE : EUC_2D
NODE_COORD_SECTION
1 36683.3333 15133.3333
2 36716.6667 14683.3333
3 36716.6667 14733.3333
4 36716.6667 14850.0000
5 36716.6667 15000.0000
6 36716.6667 15083.3333
7 36733.3333 14800.0000
8 36733.3333 15033.3333
9 36733.3333 15100.0000
EOF
